c instance by G2
c solution = 0110010011100011101
c Known solution cost is 901 
p cnf 19 30
w 90 46 27 22 86 78 39 82 79 43 94 4 4 21 32 63 11 19 61
7 -5 17 0
-19 -18 13 0
7 -11 16 0
-12 13 8 0
16 -11 -9 0
5 19 -2 0
18 15 -2 0
-5 19 -17 0
13 -9 16 0
-1 19 -14 0
1 -5 -10 0
4 6 12 0
12 7 -8 0
-6 13 -4 0
-13 -3 -14 0
16 -9 10 0
14 8 11 0
-9 -1 8 0
12 -15 17 0
-6 -12 -2 0
-9 -13 -16 0
7 12 -14 0
10 -5 -2 0
12 3 -15 0
-15 -11 19 0
-7 18 -2 0
-18 -9 8 0
2 -6 -17 0
9 12 -10 0
10 -2 -11 0
